m2-3.out
Problem:    m2
Rows:       10
Columns:    4 (4 integer, 0 binary)
Non-zeros:  26
Status:     INTEGER OPTIMAL
Objective:  lucro = 109 (MAXimum)

   No.   Row name        Activity     Lower bound   Upper bound
------ ------------    ------------- ------------- -------------
     1 lucro                     109                             
     2 Disp_Mq[1]                 58                          80 
     3 Disp_Mq[2]                 20                          20 
     4 Disp_Mq[3]                 36                          40 
     5 Disp_Mo[1]                 22                         120 
     6 Disp_Mo[2]                 70                         160 
     7 Pot_max_venda[1]
                                  10                          70 
     8 Pot_max_venda[2]
                                   0                          60 
     9 Pot_max_venda[3]
                                   1                          40 
    10 Pot_max_venda[4]
                                   0                          20 

   No. Column name       Activity     Lower bound   Upper bound
------ ------------    ------------- ------------- -------------
     1 x[1]         *             10             0               
     2 x[2]         *              0             0               
     3 x[3]         *              1             0               
     4 x[4]         *              0             0               

Integer feasibility conditions:

KKT.PE: max.abs.err = 0.00e+00 on row 0
        max.rel.err = 0.00e+00 on row 0
        High quality

KKT.PB: max.abs.err = 0.00e+00 on row 0
        max.rel.err = 0.00e+00 on row 0
        High quality

End of output
